0 0 0 0
0 1 0 0
0 2 0 3
0 3 0 0
0 4 0 12
0 5 0 3
0 6 0 22
0 7 0 22
0 8 0 34
0 9 0 11
0 10 0 22
0 11 0 54
0 12 0 22
0 13 0 31
0 14 0 83
0 15 0 1
0 16 0 70
0 17 0 4
0 18 0 45
0 19 0 37
0 20 0 20
0 21 0 27
0 22 0 38
0 23 0 41
0 24 0 6
0 25 0 45
0 26 0 80
0 27 0 55
0 28 0 69
0 29 0 20
0 30 0 100
0 31 0 96
0 32 0 46
0 33 0 39
0 34 0 84
0 35 0 3
0 36 0 77
0 37 0 113
0 38 0 37
0 39 0 96
0 40 0 32
0 41 0 31
0 42 0 118
0 43 0 111
0 44 0 74
0 45 0 110
0 46 0 113
0 47 0 136
0 48 0 100
0 49 0 127
0 50 0 31
0 51 0 120
0 52 0 119
0 53 0 38
0 54 0 69
0 55 0 119
0 56 0 10
0 57 0 160
0 58 0 88
0 59 0 60
0 60 0 113
0 61 0 159
0 62 0 55
0 63 0 125
0 64 0 129
0 65 0 62
0 66 0 52
0 67 0 78
0 68 0 82
0 69 0 70
0 70 0 100
0 71 0 100
0 72 0 138
0 73 0 45
0 74 0 54
0 75 0 84
0 76 0 78
0 77 0 110
0 78 0 54
0 79 0 91
0 80 0 145
0 81 0 117
0 82 0 125
0 83 0 91
0 84 0 106
0 85 0 138
0 86 0 67
0 87 0 46
0 88 0 146
0 89 0 3
0 90 0 131
0 91 0 117
0 92 0 62
0 93 0 138
0 94 0 75
0 95 0 162
0 96 0 153
0 97 0 146
0 98 0 146
0 99 0 153
0 100 0 120
0 101 0 147
0 102 0 170
0 103 0 173
0 104 0 141
0 105 0 88
0 106 0 131
0 107 0 155
0 108 0 160
0 109 0 180
0 110 0 162
0 111 0 174
0 112 0 173
0 113 0 155
0 114 0 180
0 115 0 171
0 116 0 171
0 117 0 180
0 118 0 187
0 119 0 184
0 120 0 186
0 121 0 192
